p cnf 200 1110
-101 -58 0
-101 57 0
-101 -16 0
-101 -15 0
-101 67 0
-101 -8 0
-101 -40 0
-101 91 0
-101 82 0
-101 -50 0
101 58 -57 16 15 -67 8 40 -91 -82 50 0
-102 -49 0
-102 -77 0
-102 -55 0
-102 -91 0
-102 -3 0
-102 -36 0
-102 -65 0
-102 95 0
-102 73 0
-102 75 0
102 49 77 55 91 3 36 65 -95 -73 -75 0
-103 -48 0
-103 -90 0
-103 -5 0
-103 -77 0
-103 -13 0
-103 -50 0
-103 54 0
-103 19 0
-103 -2 0
-103 -1 0
103 48 90 5 77 13 50 -54 -19 2 1 0
-104 37 0
-104 -71 0
-104 29 0
-104 38 0
-104 -99 0
-104 89 0
-104 66 0
-104 24 0
-104 -54 0
-104 98 0
104 -37 71 -29 -38 99 -89 -66 -24 54 -98 0
-105 -47 0
-105 32 0
-105 -33 0
-105 82 0
-105 26 0
-105 41 0
-105 67 0
-105 -87 0
-105 79 0
-105 48 0
105 47 -32 33 -82 -26 -41 -67 87 -79 -48 0
-106 36 0
-106 -73 0
-106 -8 0
-106 -27 0
-106 29 0
-106 65 0
-106 13 0
-106 44 0
-106 -70 0
-106 57 0
106 -36 73 8 27 -29 -65 -13 -44 70 -57 0
-107 82 0
-107 92 0
-107 -83 0
-107 -8 0
-107 14 0
-107 34 0
-107 -77 0
-107 20 0
-107 23 0
-107 67 0
107 -82 -92 83 8 -14 -34 77 -20 -23 -67 0
-108 -100 0
-108 45 0
-108 -7 0
-108 -97 0
-108 61 0
-108 -60 0
-108 -22 0
-108 -62 0
-108 26 0
-108 -74 0
108 100 -45 7 97 -61 60 22 62 -26 74 0
-109 -18 0
-109 -71 0
-109 -2 0
-109 16 0
-109 21 0
-109 -76 0
-109 88 0
-109 87 0
-109 35 0
-109 -80 0
109 18 71 2 -16 -21 76 -88 -87 -35 80 0
-110 -21 0
-110 39 0
-110 -27 0
-110 6 0
-110 -80 0
-110 -69 0
-110 48 0
-110 53 0
-110 -11 0
-110 -95 0
110 21 -39 27 -6 80 69 -48 -53 11 95 0
101 102 103 104 105 106 107 108 109 110 0
-111 -77 0
-111 -91 0
-111 -52 0
-111 95 0
-111 -19 0
-111 59 0
-111 -41 0
-111 -6 0
-111 -21 0
-111 89 0
111 77 91 52 -95 19 -59 41 6 21 -89 0
-112 6 0
-112 -37 0
-112 -83 0
-112 78 0
-112 -13 0
-112 48 0
-112 -11 0
-112 -8 0
-112 32 0
-112 -20 0
112 -6 37 83 -78 13 -48 11 8 -32 20 0
-113 -93 0
-113 -80 0
-113 -88 0
-113 -66 0
-113 40 0
-113 57 0
-113 -47 0
-113 99 0
-113 73 0
-113 68 0
113 93 80 88 66 -40 -57 47 -99 -73 -68 0
-114 95 0
-114 3 0
-114 5 0
-114 24 0
-114 12 0
-114 -47 0
-114 -88 0
-114 -85 0
-114 -42 0
-114 96 0
114 -95 -3 -5 -24 -12 47 88 85 42 -96 0
-115 22 0
-115 94 0
-115 85 0
-115 95 0
-115 -74 0
-115 92 0
-115 -63 0
-115 -33 0
-115 -87 0
-115 -46 0
115 -22 -94 -85 -95 74 -92 63 33 87 46 0
-116 -38 0
-116 -79 0
-116 97 0
-116 57 0
-116 84 0
-116 48 0
-116 34 0
-116 35 0
-116 -65 0
-116 59 0
116 38 79 -97 -57 -84 -48 -34 -35 65 -59 0
-117 -43 0
-117 -9 0
-117 33 0
-117 76 0
-117 2 0
-117 -19 0
-117 -39 0
-117 -79 0
-117 47 0
-117 92 0
117 43 9 -33 -76 -2 19 39 79 -47 -92 0
-118 -50 0
-118 -87 0
-118 -37 0
-118 -73 0
-118 53 0
-118 2 0
-118 -27 0
-118 20 0
-118 -68 0
-118 23 0
118 50 87 37 73 -53 -2 27 -20 68 -23 0
-119 -37 0
-119 -98 0
-119 28 0
-119 29 0
-119 42 0
-119 60 0
-119 -20 0
-119 -55 0
-119 53 0
-119 75 0
119 37 98 -28 -29 -42 -60 20 55 -53 -75 0
-120 50 0
-120 92 0
-120 -11 0
-120 -53 0
-120 54 0
-120 86 0
-120 5 0
-120 41 0
-120 3 0
-120 -61 0
120 -50 -92 11 53 -54 -86 -5 -41 -3 61 0
111 112 113 114 115 116 117 118 119 120 0
-121 28 0
-121 44 0
-121 -71 0
-121 82 0
-121 -3 0
-121 61 0
-121 -17 0
-121 64 0
-121 -42 0
-121 -81 0
121 -28 -44 71 -82 3 -61 17 -64 42 81 0
-122 -91 0
-122 52 0
-122 73 0
-122 -48 0
-122 36 0
-122 -12 0
-122 -58 0
-122 14 0
-122 49 0
-122 92 0
122 91 -52 -73 48 -36 12 58 -14 -49 -92 0
-123 61 0
-123 -11 0
-123 62 0
-123 -81 0
-123 10 0
-123 70 0
-123 -84 0
-123 71 0
-123 -48 0
-123 20 0
123 -61 11 -62 81 -10 -70 84 -71 48 -20 0
-124 -69 0
-124 97 0
-124 46 0
-124 -20 0
-124 -17 0
-124 -49 0
-124 55 0
-124 14 0
-124 -21 0
-124 -58 0
124 69 -97 -46 20 17 49 -55 -14 21 58 0
-125 19 0
-125 -10 0
-125 71 0
-125 68 0
-125 -57 0
-125 -64 0
-125 -59 0
-125 -88 0
-125 -16 0
-125 -23 0
125 -19 10 -71 -68 57 64 59 88 16 23 0
-126 -65 0
-126 54 0
-126 100 0
-126 87 0
-126 -25 0
-126 -8 0
-126 12 0
-126 -28 0
-126 2 0
-126 17 0
126 65 -54 -100 -87 25 8 -12 28 -2 -17 0
-127 75 0
-127 -99 0
-127 92 0
-127 33 0
-127 44 0
-127 26 0
-127 -87 0
-127 53 0
-127 4 0
-127 50 0
127 -75 99 -92 -33 -44 -26 87 -53 -4 -50 0
-128 64 0
-128 -21 0
-128 37 0
-128 46 0
-128 51 0
-128 -40 0
-128 71 0
-128 -26 0
-128 -1 0
-128 8 0
128 -64 21 -37 -46 -51 40 -71 26 1 -8 0
-129 4 0
-129 10 0
-129 9 0
-129 -52 0
-129 -24 0
-129 -18 0
-129 -21 0
-129 -51 0
-129 -67 0
-129 -54 0
129 -4 -10 -9 52 24 18 21 51 67 54 0
-130 3 0
-130 -32 0
-130 24 0
-130 57 0
-130 82 0
-130 33 0
-130 53 0
-130 43 0
-130 92 0
-130 2 0
130 -3 32 -24 -57 -82 -33 -53 -43 -92 -2 0
121 122 123 124 125 126 127 128 129 130 0
-131 -3 0
-131 67 0
-131 -83 0
-131 -7 0
-131 41 0
-131 -31 0
-131 -61 0
-131 -92 0
-131 13 0
-131 -96 0
131 3 -67 83 7 -41 31 61 92 -13 96 0
-132 96 0
-132 14 0
-132 66 0
-132 21 0
-132 57 0
-132 91 0
-132 32 0
-132 -53 0
-132 -55 0
-132 62 0
132 -96 -14 -66 -21 -57 -91 -32 53 55 -62 0
-133 -10 0
-133 69 0
-133 -71 0
-133 65 0
-133 3 0
-133 21 0
-133 37 0
-133 -61 0
-133 36 0
-133 12 0
133 10 -69 71 -65 -3 -21 -37 61 -36 -12 0
-134 -10 0
-134 87 0
-134 -61 0
-134 2 0
-134 5 0
-134 -26 0
-134 29 0
-134 -55 0
-134 -40 0
-134 -73 0
134 10 -87 61 -2 -5 26 -29 55 40 73 0
-135 -20 0
-135 -43 0
-135 -66 0
-135 -99 0
-135 -68 0
-135 45 0
-135 13 0
-135 86 0
-135 -87 0
-135 -25 0
135 20 43 66 99 68 -45 -13 -86 87 25 0
-136 15 0
-136 99 0
-136 -37 0
-136 88 0
-136 42 0
-136 6 0
-136 -76 0
-136 -73 0
-136 93 0
-136 -32 0
136 -15 -99 37 -88 -42 -6 76 73 -93 32 0
-137 -96 0
-137 -12 0
-137 -14 0
-137 66 0
-137 77 0
-137 24 0
-137 51 0
-137 33 0
-137 22 0
-137 -85 0
137 96 12 14 -66 -77 -24 -51 -33 -22 85 0
-138 39 0
-138 70 0
-138 -73 0
-138 -32 0
-138 -16 0
-138 -44 0
-138 52 0
-138 -12 0
-138 -72 0
-138 11 0
138 -39 -70 73 32 16 44 -52 12 72 -11 0
-139 39 0
-139 8 0
-139 -87 0
-139 -68 0
-139 -25 0
-139 70 0
-139 -80 0
-139 -95 0
-139 21 0
-139 56 0
139 -39 -8 87 68 25 -70 80 95 -21 -56 0
-140 -89 0
-140 -4 0
-140 -3 0
-140 90 0
-140 -85 0
-140 35 0
-140 38 0
-140 40 0
-140 -9 0
-140 21 0
140 89 4 3 -90 85 -35 -38 -40 9 -21 0
131 132 133 134 135 136 137 138 139 140 0
-141 45 0
-141 67 0
-141 66 0
-141 -84 0
-141 -17 0
-141 50 0
-141 19 0
-141 -59 0
-141 -80 0
-141 -94 0
141 -45 -67 -66 84 17 -50 -19 59 80 94 0
-142 -98 0
-142 66 0
-142 -42 0
-142 97 0
-142 45 0
-142 34 0
-142 83 0
-142 -1 0
-142 -15 0
-142 54 0
142 98 -66 42 -97 -45 -34 -83 1 15 -54 0
-143 71 0
-143 -63 0
-143 -98 0
-143 4 0
-143 -43 0
-143 50 0
-143 -28 0
-143 36 0
-143 -41 0
-143 -39 0
143 -71 63 98 -4 43 -50 28 -36 41 39 0
-144 4 0
-144 53 0
-144 54 0
-144 -77 0
-144 95 0
-144 57 0
-144 55 0
-144 68 0
-144 9 0
-144 -94 0
144 -4 -53 -54 77 -95 -57 -55 -68 -9 94 0
-145 -18 0
-145 -83 0
-145 -7 0
-145 -77 0
-145 -75 0
-145 -4 0
-145 -96 0
-145 28 0
-145 -97 0
-145 -16 0
145 18 83 7 77 75 4 96 -28 97 16 0
-146 38 0
-146 93 0
-146 -68 0
-146 45 0
-146 75 0
-146 11 0
-146 22 0
-146 77 0
-146 27 0
-146 -18 0
146 -38 -93 68 -45 -75 -11 -22 -77 -27 18 0
-147 -96 0
-147 -58 0
-147 -34 0
-147 95 0
-147 80 0
-147 -1 0
-147 -32 0
-147 -82 0
-147 -10 0
-147 -41 0
147 96 58 34 -95 -80 1 32 82 10 41 0
-148 14 0
-148 86 0
-148 97 0
-148 -63 0
-148 -24 0
-148 57 0
-148 49 0
-148 21 0
-148 54 0
-148 -30 0
148 -14 -86 -97 63 24 -57 -49 -21 -54 30 0
-149 -44 0
-149 -85 0
-149 -37 0
-149 53 0
-149 -18 0
-149 -49 0
-149 -25 0
-149 55 0
-149 -67 0
-149 66 0
149 44 85 37 -53 18 49 25 -55 67 -66 0
-150 21 0
-150 -32 0
-150 -85 0
-150 30 0
-150 72 0
-150 -34 0
-150 -76 0
-150 8 0
-150 100 0
-150 1 0
150 -21 32 85 -30 -72 34 76 -8 -100 -1 0
141 142 143 144 145 146 147 148 149 150 0
-151 -54 0
-151 -37 0
-151 53 0
-151 -88 0
-151 -24 0
-151 -19 0
-151 80 0
-151 -23 0
-151 -31 0
-151 -99 0
151 54 37 -53 88 24 19 -80 23 31 99 0
-152 -12 0
-152 -9 0
-152 -37 0
-152 -39 0
-152 -63 0
-152 64 0
-152 61 0
-152 85 0
-152 -24 0
-152 -45 0
152 12 9 37 39 63 -64 -61 -85 24 45 0
-153 81 0
-153 45 0
-153 43 0
-153 41 0
-153 21 0
-153 -19 0
-153 -18 0
-153 -92 0
-153 -53 0
-153 28 0
153 -81 -45 -43 -41 -21 19 18 92 53 -28 0
-154 -84 0
-154 56 0
-154 -15 0
-154 -78 0
-154 97 0
-154 -72 0
-154 12 0
-154 59 0
-154 -55 0
-154 -50 0
154 84 -56 15 78 -97 72 -12 -59 55 50 0
-155 -97 0
-155 -88 0
-155 -8 0
-155 11 0
-155 40 0
-155 -67 0
-155 -31 0
-155 27 0
-155 86 0
-155 95 0
155 97 88 8 -11 -40 67 31 -27 -86 -95 0
-156 -90 0
-156 -91 0
-156 64 0
-156 28 0
-156 98 0
-156 -57 0
-156 -48 0
-156 -70 0
-156 8 0
-156 96 0
156 90 91 -64 -28 -98 57 48 70 -8 -96 0
-157 -26 0
-157 -64 0
-157 -31 0
-157 -71 0
-157 86 0
-157 18 0
-157 -85 0
-157 -96 0
-157 78 0
-157 21 0
157 26 64 31 71 -86 -18 85 96 -78 -21 0
-158 1 0
-158 -66 0
-158 81 0
-158 -4 0
-158 88 0
-158 -53 0
-158 -68 0
-158 14 0
-158 -42 0
-158 38 0
158 -1 66 -81 4 -88 53 68 -14 42 -38 0
-159 -97 0
-159 84 0
-159 -15 0
-159 42 0
-159 -81 0
-159 -38 0
-159 20 0
-159 10 0
-159 -13 0
-159 -35 0
159 97 -84 15 -42 81 38 -20 -10 13 35 0
-160 77 0
-160 49 0
-160 -57 0
-160 43 0
-160 -7 0
-160 46 0
-160 86 0
-160 -81 0
-160 -76 0
-160 25 0
160 -77 -49 57 -43 7 -46 -86 81 76 -25 0
151 152 153 154 155 156 157 158 159 160 0
-161 -4 0
-161 -89 0
-161 -62 0
-161 29 0
-161 -60 0
-161 -63 0
-161 22 0
-161 92 0
-161 -70 0
-161 -78 0
161 4 89 62 -29 60 63 -22 -92 70 78 0
-162 42 0
-162 31 0
-162 -95 0
-162 -28 0
-162 -13 0
-162 85 0
-162 93 0
-162 -50 0
-162 5 0
-162 -33 0
162 -42 -31 95 28 13 -85 -93 50 -5 33 0
-163 -27 0
-163 -74 0
-163 -54 0
-163 -20 0
-163 -38 0
-163 -99 0
-163 -87 0
-163 23 0
-163 32 0
-163 97 0
163 27 74 54 20 38 99 87 -23 -32 -97 0
-164 21 0
-164 -4 0
-164 8 0
-164 84 0
-164 -17 0
-164 -19 0
-164 -62 0
-164 -68 0
-164 -75 0
-164 -32 0
164 -21 4 -8 -84 17 19 62 68 75 32 0
-165 93 0
-165 -75 0
-165 -22 0
-165 85 0
-165 30 0
-165 -15 0
-165 33 0
-165 -74 0
-165 -89 0
-165 -67 0
165 -93 75 22 -85 -30 15 -33 74 89 67 0
-166 86 0
-166 76 0
-166 21 0
-166 -50 0
-166 -26 0
-166 52 0
-166 94 0
-166 65 0
-166 77 0
-166 11 0
166 -86 -76 -21 50 26 -52 -94 -65 -77 -11 0
-167 -97 0
-167 -44 0
-167 85 0
-167 74 0
-167 81 0
-167 -2 0
-167 7 0
-167 29 0
-167 -50 0
-167 91 0
167 97 44 -85 -74 -81 2 -7 -29 50 -91 0
-168 -23 0
-168 -61 0
-168 -42 0
-168 -90 0
-168 63 0
-168 87 0
-168 14 0
-168 65 0
-168 -44 0
-168 32 0
168 23 61 42 90 -63 -87 -14 -65 44 -32 0
-169 -80 0
-169 -90 0
-169 -58 0
-169 32 0
-169 -91 0
-169 73 0
-169 -6 0
-169 -61 0
-169 52 0
-169 -38 0
169 80 90 58 -32 91 -73 6 61 -52 38 0
-170 -7 0
-170 -23 0
-170 29 0
-170 -78 0
-170 67 0
-170 -88 0
-170 81 0
-170 42 0
-170 -94 0
-170 -31 0
170 7 23 -29 78 -67 88 -81 -42 94 31 0
161 162 163 164 165 166 167 168 169 170 0
-171 -13 0
-171 10 0
-171 -5 0
-171 4 0
-171 -35 0
-171 30 0
-171 8 0
-171 -22 0
-171 -14 0
-171 54 0
171 13 -10 5 -4 35 -30 -8 22 14 -54 0
-172 -25 0
-172 85 0
-172 5 0
-172 -61 0
-172 -45 0
-172 -55 0
-172 21 0
-172 92 0
-172 -20 0
-172 -56 0
172 25 -85 -5 61 45 55 -21 -92 20 56 0
-173 -42 0
-173 97 0
-173 -92 0
-173 -85 0
-173 62 0
-173 13 0
-173 55 0
-173 52 0
-173 -7 0
-173 -16 0
173 42 -97 92 85 -62 -13 -55 -52 7 16 0
-174 -80 0
-174 -72 0
-174 85 0
-174 -77 0
-174 7 0
-174 -74 0
-174 67 0
-174 -69 0
-174 -1 0
-174 -84 0
174 80 72 -85 77 -7 74 -67 69 1 84 0
-175 73 0
-175 62 0
-175 -40 0
-175 -83 0
-175 -45 0
-175 5 0
-175 -1 0
-175 94 0
-175 8 0
-175 -71 0
175 -73 -62 40 83 45 -5 1 -94 -8 71 0
-176 78 0
-176 -51 0
-176 -95 0
-176 -5 0
-176 15 0
-176 -46 0
-176 48 0
-176 37 0
-176 94 0
-176 -82 0
176 -78 51 95 5 -15 46 -48 -37 -94 82 0
-177 -32 0
-177 -69 0
-177 -41 0
-177 49 0
-177 -95 0
-177 -60 0
-177 61 0
-177 53 0
-177 1 0
-177 18 0
177 32 69 41 -49 95 60 -61 -53 -1 -18 0
-178 26 0
-178 51 0
-178 -30 0
-178 37 0
-178 54 0
-178 89 0
-178 27 0
-178 12 0
-178 -7 0
-178 -97 0
178 -26 -51 30 -37 -54 -89 -27 -12 7 97 0
-179 17 0
-179 8 0
-179 -44 0
-179 26 0
-179 -78 0
-179 19 0
-179 -98 0
-179 -60 0
-179 -51 0
-179 -15 0
179 -17 -8 44 -26 78 -19 98 60 51 15 0
-180 -16 0
-180 80 0
-180 -6 0
-180 -38 0
-180 -57 0
-180 66 0
-180 11 0
-180 28 0
-180 26 0
-180 61 0
180 16 -80 6 38 57 -66 -11 -28 -26 -61 0
171 172 173 174 175 176 177 178 179 180 0
-181 34 0
-181 53 0
-181 31 0
-181 -7 0
-181 2 0
-181 17 0
-181 -36 0
-181 11 0
-181 93 0
-181 -4 0
181 -34 -53 -31 7 -2 -17 36 -11 -93 4 0
-182 72 0
-182 -14 0
-182 -17 0
-182 -69 0
-182 36 0
-182 2 0
-182 79 0
-182 -12 0
-182 60 0
-182 68 0
182 -72 14 17 69 -36 -2 -79 12 -60 -68 0
-183 -41 0
-183 -30 0
-183 65 0
-183 -68 0
-183 24 0
-183 93 0
-183 -98 0
-183 -59 0
-183 56 0
-183 63 0
183 41 30 -65 68 -24 -93 98 59 -56 -63 0
-184 -96 0
-184 -74 0
-184 -81 0
-184 42 0
-184 44 0
-184 -21 0
-184 -82 0
-184 -67 0
-184 -69 0
-184 -19 0
184 96 74 81 -42 -44 21 82 67 69 19 0
-185 1 0
-185 -16 0
-185 -5 0
-185 -66 0
-185 -55 0
-185 -3 0
-185 87 0
-185 -81 0
-185 -75 0
-185 42 0
185 -1 16 5 66 55 3 -87 81 75 -42 0
-186 39 0
-186 -36 0
-186 -100 0
-186 51 0
-186 94 0
-186 16 0
-186 85 0
-186 79 0
-186 -84 0
-186 -25 0
186 -39 36 100 -51 -94 -16 -85 -79 84 25 0
-187 62 0
-187 -60 0
-187 71 0
-187 1 0
-187 -21 0
-187 -45 0
-187 -84 0
-187 4 0
-187 23 0
-187 -50 0
187 -62 60 -71 -1 21 45 84 -4 -23 50 0
-188 99 0
-188 79 0
-188 -67 0
-188 -35 0
-188 -53 0
-188 95 0
-188 -48 0
-188 7 0
-188 57 0
-188 93 0
188 -99 -79 67 35 53 -95 48 -7 -57 -93 0
-189 -36 0
-189 95 0
-189 -77 0
-189 65 0
-189 28 0
-189 -74 0
-189 -75 0
-189 -29 0
-189 7 0
-189 19 0
189 36 -95 77 -65 -28 74 75 29 -7 -19 0
-190 -15 0
-190 -8 0
-190 -45 0
-190 44 0
-190 57 0
-190 -49 0
-190 35 0
-190 67 0
-190 37 0
-190 -76 0
190 15 8 45 -44 -57 49 -35 -67 -37 76 0
181 182 183 184 185 186 187 188 189 190 0
-191 -97 0
-191 -26 0
-191 -89 0
-191 -4 0
-191 -52 0
-191 87 0
-191 -35 0
-191 -73 0
-191 -66 0
-191 70 0
191 97 26 89 4 52 -87 35 73 66 -70 0
-192 -85 0
-192 5 0
-192 24 0
-192 -69 0
-192 -45 0
-192 9 0
-192 4 0
-192 -94 0
-192 26 0
-192 -52 0
192 85 -5 -24 69 45 -9 -4 94 -26 52 0
-193 -60 0
-193 58 0
-193 78 0
-193 48 0
-193 72 0
-193 -17 0
-193 47 0
-193 -98 0
-193 -53 0
-193 67 0
193 60 -58 -78 -48 -72 17 -47 98 53 -67 0
-194 -40 0
-194 -7 0
-194 -66 0
-194 -6 0
-194 60 0
-194 -95 0
-194 59 0
-194 -80 0
-194 19 0
-194 -88 0
194 40 7 66 6 -60 95 -59 80 -19 88 0
-195 94 0
-195 67 0
-195 -25 0
-195 -73 0
-195 8 0
-195 68 0
-195 -28 0
-195 48 0
-195 87 0
-195 -79 0
195 -94 -67 25 73 -8 -68 28 -48 -87 79 0
-196 -34 0
-196 -22 0
-196 -54 0
-196 -63 0
-196 46 0
-196 -87 0
-196 9 0
-196 84 0
-196 49 0
-196 -12 0
196 34 22 54 63 -46 87 -9 -84 -49 12 0
-197 -92 0
-197 34 0
-197 87 0
-197 -71 0
-197 -41 0
-197 -68 0
-197 13 0
-197 43 0
-197 81 0
-197 8 0
197 92 -34 -87 71 41 68 -13 -43 -81 -8 0
-198 -86 0
-198 -39 0
-198 53 0
-198 3 0
-198 29 0
-198 -65 0
-198 74 0
-198 -91 0
-198 -66 0
-198 -68 0
198 86 39 -53 -3 -29 65 -74 91 66 68 0
-199 -54 0
-199 86 0
-199 50 0
-199 56 0
-199 3 0
-199 2 0
-199 1 0
-199 -18 0
-199 -33 0
-199 -13 0
199 54 -86 -50 -56 -3 -2 -1 18 33 13 0
-200 83 0
-200 11 0
-200 -65 0
-200 4 0
-200 -5 0
-200 28 0
-200 -82 0
-200 -61 0
-200 67 0
-200 48 0
200 -83 -11 65 -4 5 -28 82 61 -67 -48 0
191 192 193 194 195 196 197 198 199 200 0
